Problem:    ModelGLPK_chloroorienticin_D
Rows:       113
Columns:    17 (17 integer, 17 binary)
Non-zeros:  204
Status:     INTEGER OPTIMAL
Objective:  number_of_installed_atoms = 112 (MAXimum)

   No.   Row name        Activity     Lower bound   Upper bound
------ ------------    ------------- ------------- -------------
     1 Atom_Owner[a0]
                                   1                           1 
     2 Atom_Owner[a1]
                                   1                           1 
     3 Atom_Owner[a2]
                                   1                           1 
     4 Atom_Owner[a3]
                                   1                           1 
     5 Atom_Owner[a4]
                                   1                           1 
     6 Atom_Owner[a5]
                                   1                           1 
     7 Atom_Owner[a6]
                                   1                           1 
     8 Atom_Owner[a7]
                                   1                           1 
     9 Atom_Owner[a8]
                                   1                           1 
    10 Atom_Owner[a9]
                                   1                           1 
    11 Atom_Owner[a10]
                                   1                           1 
    12 Atom_Owner[a11]
                                   1                           1 
    13 Atom_Owner[a12]
                                   1                           1 
    14 Atom_Owner[a13]
                                   1                           1 
    15 Atom_Owner[a14]
                                   1                           1 
    16 Atom_Owner[a15]
                                   1                           1 
    17 Atom_Owner[a16]
                                   1                           1 
    18 Atom_Owner[a17]
                                   1                           1 
    19 Atom_Owner[a18]
                                   1                           1 
    20 Atom_Owner[a19]
                                   1                           1 
    21 Atom_Owner[a20]
                                   1                           1 
    22 Atom_Owner[a21]
                                   1                           1 
    23 Atom_Owner[a22]
                                   1                           1 
    24 Atom_Owner[a23]
                                   1                           1 
    25 Atom_Owner[a24]
                                   1                           1 
    26 Atom_Owner[a25]
                                   1                           1 
    27 Atom_Owner[a26]
                                   1                           1 
    28 Atom_Owner[a27]
                                   1                           1 
    29 Atom_Owner[a28]
                                   1                           1 
    30 Atom_Owner[a29]
                                   1                           1 
    31 Atom_Owner[a30]
                                   1                           1 
    32 Atom_Owner[a31]
                                   1                           1 
    33 Atom_Owner[a32]
                                   1                           1 
    34 Atom_Owner[a33]
                                   1                           1 
    35 Atom_Owner[a34]
                                   1                           1 
    36 Atom_Owner[a35]
                                   1                           1 
    37 Atom_Owner[a36]
                                   1                           1 
    38 Atom_Owner[a37]
                                   1                           1 
    39 Atom_Owner[a38]
                                   1                           1 
    40 Atom_Owner[a39]
                                   1                           1 
    41 Atom_Owner[a40]
                                   1                           1 
    42 Atom_Owner[a41]
                                   1                           1 
    43 Atom_Owner[a42]
                                   1                           1 
    44 Atom_Owner[a43]
                                   1                           1 
    45 Atom_Owner[a44]
                                   1                           1 
    46 Atom_Owner[a45]
                                   1                           1 
    47 Atom_Owner[a46]
                                   1                           1 
    48 Atom_Owner[a47]
                                   1                           1 
    49 Atom_Owner[a48]
                                   1                           1 
    50 Atom_Owner[a49]
                                   1                           1 
    51 Atom_Owner[a50]
                                   1                           1 
    52 Atom_Owner[a51]
                                   1                           1 
    53 Atom_Owner[a52]
                                   1                           1 
    54 Atom_Owner[a53]
                                   1                           1 
    55 Atom_Owner[a54]
                                   1                           1 
    56 Atom_Owner[a55]
                                   1                           1 
    57 Atom_Owner[a56]
                                   1                           1 
    58 Atom_Owner[a57]
                                   1                           1 
    59 Atom_Owner[a58]
                                   1                           1 
    60 Atom_Owner[a59]
                                   1                           1 
    61 Atom_Owner[a60]
                                   1                           1 
    62 Atom_Owner[a61]
                                   1                           1 
    63 Atom_Owner[a62]
                                   1                           1 
    64 Atom_Owner[a63]
                                   1                           1 
    65 Atom_Owner[a64]
                                   1                           1 
    66 Atom_Owner[a65]
                                   1                           1 
    67 Atom_Owner[a66]
                                   1                           1 
    68 Atom_Owner[a67]
                                   1                           1 
    69 Atom_Owner[a68]
                                   1                           1 
    70 Atom_Owner[a69]
                                   1                           1 
    71 Atom_Owner[a70]
                                   1                           1 
    72 Atom_Owner[a71]
                                   1                           1 
    73 Atom_Owner[a72]
                                   1                           1 
    74 Atom_Owner[a73]
                                   1                           1 
    75 Atom_Owner[a74]
                                   1                           1 
    76 Atom_Owner[a75]
                                   1                           1 
    77 Atom_Owner[a76]
                                   1                           1 
    78 Atom_Owner[a77]
                                   1                           1 
    79 Atom_Owner[a78]
                                   1                           1 
    80 Atom_Owner[a79]
                                   1                           1 
    81 Atom_Owner[a80]
                                   1                           1 
    82 Atom_Owner[a81]
                                   1                           1 
    83 Atom_Owner[a82]
                                   1                           1 
    84 Atom_Owner[a83]
                                   1                           1 
    85 Atom_Owner[a84]
                                   1                           1 
    86 Atom_Owner[a85]
                                   1                           1 
    87 Atom_Owner[a86]
                                   1                           1 
    88 Atom_Owner[a87]
                                   1                           1 
    89 Atom_Owner[a88]
                                   1                           1 
    90 Atom_Owner[a89]
                                   1                           1 
    91 Atom_Owner[a90]
                                   1                           1 
    92 Atom_Owner[a91]
                                   1                           1 
    93 Atom_Owner[a92]
                                   1                           1 
    94 Atom_Owner[a93]
                                   1                           1 
    95 Atom_Owner[a94]
                                   1                           1 
    96 Atom_Owner[a95]
                                   1                           1 
    97 Atom_Owner[a96]
                                   1                           1 
    98 Atom_Owner[a97]
                                   1                           1 
    99 Atom_Owner[a98]
                                   1                           1 
   100 Atom_Owner[a99]
                                   1                           1 
   101 Atom_Owner[a100]
                                   1                           1 
   102 Atom_Owner[a101]
                                   1                           1 
   103 Atom_Owner[a102]
                                   1                           1 
   104 Atom_Owner[a103]
                                   1                           1 
   105 Atom_Owner[a104]
                                   1                           1 
   106 Atom_Owner[a105]
                                   1                           1 
   107 Atom_Owner[a106]
                                   1                           1 
   108 Atom_Owner[a107]
                                   1                           1 
   109 Atom_Owner[a108]
                                   1                           1 
   110 Atom_Owner[a109]
                                   1                           1 
   111 Atom_Owner[a110]
                                   1                           1 
   112 Atom_Owner[a111]
                                   1                           1 
   113 number_of_installed_atoms
                                 112                             

   No. Column name       Activity     Lower bound   Upper bound
------ ------------    ------------- ------------- -------------
     1 install[m0]  *              1             0             1 
     2 install[m1]  *              0             0             1 
     3 install[m2]  *              0             0             1 
     4 install[m3]  *              1             0             1 
     5 install[m4]  *              1             0             1 
     6 install[m5]  *              1             0             1 
     7 install[m6]  *              1             0             1 
     8 install[m7]  *              1             0             1 
     9 install[m8]  *              1             0             1 
    10 install[m9]  *              0             0             1 
    11 install[m10] *              0             0             1 
    12 install[m11] *              0             0             1 
    13 install[m12] *              0             0             1 
    14 install[m13] *              0             0             1 
    15 install[m14] *              1             0             1 
    16 install[m15] *              1             0             1 
    17 install[m16] *              1             0             1 

Integer feasibility conditions:

KKT.PE: max.abs.err = 0.00e+00 on row 0
        max.rel.err = 0.00e+00 on row 0
        High quality

KKT.PB: max.abs.err = 0.00e+00 on row 0
        max.rel.err = 0.00e+00 on row 0
        High quality

End of output
